81946.67 0
0 1 219 220 2 221 3 4 222 22 21 20 19 18 16 17 15 13 14 12 5 6 7 8 9 10 11 112 111 110 109 108 107 106 105 104 103 102 101 100 99 98 97 96 95 94 93 92 91 90 89 88 87 86 85 84 83 82 81 80 79 78 77 76 75 74 73 72 71 70 69 68 67 66 65 64 63 62 61 60 59 58 57 56 55 54 53 52 51 50 49 48 47 46 45 44 43 42 41 40 39 38 37 35 34 36 29 28 27 26 33 31 25 24 32 30 23 206 214 213 205 204 212 211 203 202 210 209 200 201 208 207 199 153 152 154 151 150 149 156 155 159 158 157 160 161 145 144 143 148 147 146 142 141 140 139 138 137 136 135 134 133 162 167 168 169 170 171 172 173 174 175 176 166 165 164 163 132 177 131 130 129 179 128 127 126 122 121 119 118 117 116 115 114 113 185 186 187 188 189 190 191 192 193 194 195 196 197 198 184 120 123 124 125 183 180 181 182 178 223 215 217 224 225 216 218